asp/input/in_50_25_10_3.lp
#const n = 50.
#const k = 25.
#const h = 10.
tile(1,24,5).
tile(2,21,12).
tile(3,2,19).
tile(4,8,5).
tile(5,14,7).
tile(6,4,8).
tile(7,5,25).
tile(8,22,7).
tile(9,21,4).
tile(10,20,2).
tile(11,6,17).
tile(12,12,10).
tile(13,25,16).
tile(14,5,13).
tile(15,25,7).
tile(16,1,6).
tile(17,3,19).
tile(18,3,7).
tile(19,14,20).
tile(20,3,15).
tile(21,19,25).
tile(22,25,11).
tile(23,14,19).
tile(24,15,12).
tile(25,16,18).
tile(26,18,25).
tile(27,1,11).
tile(28,23,13).
tile(29,20,10).
tile(30,2,4).
tile(31,13,5).
tile(32,6,12).
tile(33,13,7).
tile(34,11,10).
tile(35,3,23).
tile(36,13,24).
tile(37,19,5).
tile(38,23,20).
tile(39,3,2).
tile(40,8,9).
tile(41,8,20).
tile(42,4,20).
tile(43,9,15).
tile(44,24,5).
tile(45,5,8).
tile(46,14,12).
tile(47,10,6).
tile(48,24,12).
tile(49,5,17).
tile(50,11,15).
