minizinc/input/in_50_25_10_3.dzn
n = 50;
k = 25;
h = 10;
tiles = array2d(1..n, 1..2,
[ 24,5
, 21,12
, 2,19
, 8,5
, 14,7
, 4,8
, 5,25
, 22,7
, 21,4
, 20,2
, 6,17
, 12,10
, 25,16
, 5,13
, 25,7
, 1,6
, 3,19
, 3,7
, 14,20
, 3,15
, 19,25
, 25,11
, 14,19
, 15,12
, 16,18
, 18,25
, 1,11
, 23,13
, 20,10
, 2,4
, 13,5
, 6,12
, 13,7
, 11,10
, 3,23
, 13,24
, 19,5
, 23,20
, 3,2
, 8,9
, 8,20
, 4,20
, 9,15
, 24,5
, 5,8
, 14,12
, 10,6
, 24,12
, 5,17
, 11,15
]);